;; Mutation-Based Equivalence Benchmark
;; Source:     AutomatArk / instance03332.smt2
;; Mutations:  literal_char_inc
;; Status:     sat
;;
;; Original regex vs mutated regex
;; Equivalence check: unsat ⟺ L(R1) = L(R2)

(set-info :smt-lib-version 2.6)
(set-info :category "mutation")
(set-info :status sat)
(set-logic QF_S)

(declare-const x String)

;; R1: original
;; R2: mutated (literal_char_inc)
(assert
  (str.in_re x
    (re.union (re.inter (re.++ (re.* re.allchar) (re.union (str.to_re "P") (str.to_re "p")) (str.to_re "en") (re.union (str.to_re "I") (str.to_re "i") (str.to_re "1")) (re.union (str.to_re "$") (str.to_re "s")) (re.* re.allchar) (str.to_re "\u{a}")) (re.comp (re.++ (re.* re.allchar) (re.union (str.to_re "P") (str.to_re "p")) (str.to_re "en") (re.union (str.to_re "I") (str.to_re "i") (str.to_re "1")) (re.union (str.to_re "%") (str.to_re "s")) (re.* re.allchar) (str.to_re "\u{a}")))) (re.inter (re.comp (re.++ (re.* re.allchar) (re.union (str.to_re "P") (str.to_re "p")) (str.to_re "en") (re.union (str.to_re "I") (str.to_re "i") (str.to_re "1")) (re.union (str.to_re "$") (str.to_re "s")) (re.* re.allchar) (str.to_re "\u{a}"))) (re.++ (re.* re.allchar) (re.union (str.to_re "P") (str.to_re "p")) (str.to_re "en") (re.union (str.to_re "I") (str.to_re "i") (str.to_re "1")) (re.union (str.to_re "%") (str.to_re "s")) (re.* re.allchar) (str.to_re "\u{a}"))))))

(check-sat)
(exit)
